
Gurobi 10.0.1 (linux64) logging started Mon 17 Jul 2023 10:47:53 AM CDT

Set parameter LogFile to value "/home/dlcole3/graph_abstraction/plasmoexamples/SHP_serial/SHP_reserve_requirements/gurobi_logs/logfile26.log"
Set parameter NodefileStart to value 0.0005
Set parameter TimeLimit to value 36000
Gurobi Optimizer version 10.0.1 build v10.0.1rc0 (linux64)

CPU model: Intel(R) Xeon(R) CPU E5-2698 v4 @ 2.20GHz, instruction set [SSE2|AVX|AVX2]
Thread count: 40 physical cores, 80 logical processors, using up to 8 threads


Warning: excessive time spent in model updates.
Consider calling update less frequently.

Optimize a model with 1103654 rows, 641709 columns and 4636589 nonzeros
Model fingerprint: 0x357496d9
Variable types: 599982 continuous, 41727 integer (41727 binary)
Coefficient statistics:
  Matrix range     [5e-02, 2e+04]
  Objective range  [2e-01, 8e+04]
  Bounds range     [5e-02, 2e+04]
  RHS range        [4e-20, 7e+03]
Presolve removed 268436 rows and 115728 columns (presolve time = 5s) ...
Presolve removed 276069 rows and 116548 columns (presolve time = 10s) ...
Presolve removed 278035 rows and 124031 columns (presolve time = 15s) ...
Presolve removed 290570 rows and 124255 columns (presolve time = 20s) ...
Presolve removed 291310 rows and 124981 columns (presolve time = 25s) ...
Presolve removed 291350 rows and 125031 columns (presolve time = 30s) ...
Presolve removed 291350 rows and 125031 columns (presolve time = 35s) ...
Presolve removed 291650 rows and 125051 columns (presolve time = 40s) ...
Sparsify removed 200276 nonzeros (5%)
Presolve removed 291650 rows and 122943 columns
Presolve time: 43.55s
Presolved: 812004 rows, 518766 columns, 3974676 nonzeros
Variable types: 485041 continuous, 33725 integer (33658 binary)

Deterministic concurrent LP optimizer: primal simplex, dual simplex, and barrier
Showing barrier log only...

Root barrier log...

Elapsed ordering time = 5s
Elapsed ordering time = 18s
Elapsed ordering time = 21s
Elapsed ordering time = 25s
Elapsed ordering time = 30s
Elapsed ordering time = 33s
Elapsed ordering time = 36s
Elapsed ordering time = 40s
Elapsed ordering time = 46s
Elapsed ordering time = 50s
Elapsed ordering time = 55s
Elapsed ordering time = 59s
Elapsed ordering time = 61s
Elapsed ordering time = 65s
Elapsed ordering time = 70s
Ordering time: 71.69s

Barrier statistics:
 Dense cols : 203
 AA' NZ     : 2.409e+07
 Factor NZ  : 3.726e+08 (roughly 3.5 GB of memory)
 Factor Ops : 1.749e+12 (roughly 15 seconds per iteration)
 Threads    : 5

                  Objective                Residual
Iter       Primal          Dual         Primal    Dual     Compl     Time
   0  -2.22466235e+11 -1.80695019e+13  1.24e+04 8.91e+03  1.16e+08   140s
   1  -1.59214368e+11 -1.33514693e+13  9.27e+03 5.29e+05  7.66e+07   148s
   2  -1.15075460e+11 -8.51262044e+12  6.77e+03 2.94e+04  5.00e+07   164s
   3  -2.78353136e+10 -3.89581962e+12  1.81e+03 8.80e+00  1.34e+07   179s
   4  -7.86984656e+09 -1.85685438e+12  6.89e+02 1.74e+00  4.92e+06   195s
   5   2.49672429e+09 -8.38265708e+11  1.37e+02 1.27e+00  1.15e+06   211s
   6   3.96303283e+09 -2.93787612e+11  6.32e+01 2.01e-01  3.80e+05   228s
   7   4.25054903e+09 -1.40218964e+11  2.52e+01 9.01e-02  1.43e+05   244s
   8   3.06294595e+09 -4.50449232e+10  7.06e+00 5.76e-02  3.74e+04   261s
   9   8.77927062e+08 -1.28786643e+10  1.76e+00 1.45e-02  9.12e+03   279s
  10   1.70085288e+08 -1.95792954e+09  1.69e-01 3.66e-03  1.28e+03   298s
  11   7.84061545e+07 -3.99368550e+08  1.29e-02 7.40e-04  2.79e+02   315s
  12   5.42631302e+07 -2.76655300e+07  1.23e-03 2.73e-04  4.78e+01   334s
  13   4.82717616e+07 -6.53837404e+05  7.13e-04 1.15e-03  2.85e+01   351s
  14   4.39292021e+07  1.71414165e+07  4.15e-04 5.42e-04  1.56e+01   369s
  15   4.08053405e+07  2.69569081e+07  2.48e-04 2.59e-04  8.07e+00   387s
  16   3.90146575e+07  3.39008880e+07  1.63e-04 5.90e-05  2.98e+00   406s
  17   3.70417976e+07  3.45200784e+07  7.67e-05 2.96e-05  1.47e+00   424s
  18   3.63929763e+07  3.48581423e+07  4.99e-05 1.51e-05  8.95e-01   440s
  19   3.60152324e+07  3.49838065e+07  3.29e-05 9.81e-06  6.02e-01   455s
  20   3.57713672e+07  3.51016241e+07  2.23e-05 5.88e-06  3.91e-01   471s
  21   3.56553022e+07  3.51410638e+07  1.74e-05 3.28e-06  3.00e-01   487s
  22   3.55440791e+07  3.51530180e+07  1.28e-05 2.90e-06  2.28e-01   503s
  23   3.55123776e+07  3.51644577e+07  1.16e-05 2.54e-06  2.03e-01   520s
  24   3.54461981e+07  3.51913360e+07  8.52e-06 2.48e-06  1.49e-01   535s
  25   3.53737939e+07  3.52083981e+07  5.15e-06 1.77e-06  9.65e-02   550s
  26   3.53461097e+07  3.52242152e+07  3.95e-06 1.58e-06  7.11e-02   566s
  27   3.53249349e+07  3.52344952e+07  2.99e-06 1.11e-06  5.28e-02   581s
  28   3.53074819e+07  3.52399589e+07  2.30e-06 8.79e-07  3.94e-02   598s
  29   3.52894232e+07  3.52465697e+07  1.52e-06 5.60e-07  2.50e-02   615s
  30   3.52765532e+07  3.52506663e+07  1.46e-06 3.65e-07  1.51e-02   634s
  31   3.52701920e+07  3.52530958e+07  1.33e-06 2.59e-07  9.97e-03   652s
  32   3.52680215e+07  3.52544867e+07  1.32e-06 1.98e-07  7.90e-03   674s
  33   3.52641571e+07  3.52564417e+07  1.30e-06 1.13e-07  4.50e-03   708s
  34   3.52615554e+07  3.52567419e+07  1.72e-06 9.84e-08  2.81e-03   732s
  35   3.52599573e+07  3.52586723e+07  1.46e-06 1.73e-08  7.50e-04   765s
  36   3.52596866e+07  3.52589081e+07  1.32e-06 7.24e-09  4.54e-04   794s
  37   3.52594102e+07  3.52590116e+07  6.03e-07 2.48e-09  2.33e-04   820s
  38   3.52592423e+07  3.52590677e+07  4.02e-07 1.92e-09  1.02e-04   847s
  39   3.52591582e+07  3.52590862e+07  2.07e-07 1.72e-09  4.20e-05   867s
  40   3.52591116e+07  3.52590976e+07  3.72e-08 1.57e-09  8.11e-06   887s
  41   3.52591097e+07  3.52591034e+07  6.31e-06 2.15e-09  3.54e-06   904s
  42   3.52591090e+07  3.52591036e+07  4.55e-05 2.57e-09  2.37e-06   919s
  43   3.52591050e+07  3.52591037e+07  7.81e-05 2.55e-09  2.11e-06   935s
  44   3.52590995e+07  3.52591037e+07  1.24e-04 3.81e-09  1.24e-06   951s
  45   3.52590980e+07  3.52591038e+07  7.02e-05 5.21e-09  1.60e-07   967s
  46   3.52590990e+07  3.52591038e+07  5.85e-05 7.10e-09  1.30e-07   982s
  47   3.52591014e+07  3.52591038e+07  2.92e-05 1.73e-08  6.58e-08   998s

Barrier solved model in 47 iterations and 997.96 seconds (940.02 work units)
Optimal objective 3.52591014e+07


Root crossover log...

  335833 DPushes remaining with DInf 0.0000000e+00               999s
  123959 DPushes remaining with DInf 0.0000000e+00              1004s
   80887 DPushes remaining with DInf 0.0000000e+00              1008s
   41689 DPushes remaining with DInf 0.0000000e+00              1012s
   25549 DPushes remaining with DInf 0.0000000e+00              1015s
   11738 DPushes remaining with DInf 0.0000000e+00              1020s
    4137 DPushes remaining with DInf 0.0000000e+00              1026s
     385 DPushes remaining with DInf 0.0000000e+00              1030s
       0 DPushes remaining with DInf 0.0000000e+00              1031s

   25579 PPushes remaining with PInf 3.4032426e-04              1031s
    8464 PPushes remaining with PInf 7.7027022e-05              1036s
       0 PPushes remaining with PInf 2.0546415e-05              1040s

  Push phase complete: Pinf 2.0546415e-05, Dinf 1.6000438e-02   1040s


Root simplex log...

Iteration    Objective       Primal Inf.    Dual Inf.      Time
  170987    3.5259104e+07   0.000000e+00   1.600000e-02   1041s
  170993    3.5259104e+07   0.000000e+00   0.000000e+00   1043s
  170993    3.5259104e+07   0.000000e+00   0.000000e+00   1045s
Waiting for other threads to finish...        1112s
Waiting for other threads to finish...        1178s
Waiting for other threads to finish...        1245s
Waiting for other threads to finish...        1318s
Concurrent spin time: 288.78s (can be avoided by choosing Method=3)

Solved with barrier

Root relaxation: objective 3.525910e+07, 170993 iterations, 1285.03 seconds (933.52 work units)
Total elapsed time = 1341.15s
Total elapsed time = 1345.76s

    Nodes    |    Current Node    |     Objective Bounds      |     Work
 Expl Unexpl |  Obj  Depth IntInf | Incumbent    BestBd   Gap | It/Node Time

     0     0 3.5259e+07    0   76          - 3.5259e+07      -     - 1349s
H    0     0                    3.710645e+07 3.5259e+07  4.98%     - 1373s

Explored 1 nodes (171130 simplex iterations) in 1373.59 seconds (1012.69 work units)
Thread count was 8 (of 80 available processors)

Solution count 2: 3.71065e+07 3.71065e+07 

Optimal solution found (tolerance 1.00e-01)
Best objective 3.710645443431e+07, best bound 3.525910377371e+07, gap 4.9785%

User-callback calls 302811, time in user-callback 1.49 sec
